; Options: -in -smt2
(set-option :produce-unsat-assumptions true)

(declare-fun start!1139 () Bool)

(assert start!1139)

(declare-fun res!4180 () Bool)

(declare-fun e!2735 () Bool)

(assert (=> start!1139 (=> (not res!4180) (not e!2735))))

(declare-fun jz!67 () (_ BitVec 32))

(declare-datatypes ((array!415 0))(
  ( (array!416 (arr!182 (Array (_ BitVec 32) (_ FloatingPoint 11 53))) (size!182 (_ BitVec 32))) )
))
(declare-fun qq!69 () array!415)

(assert (=> start!1139 (= res!4180 (and (bvsle #b00000000000000000000000000000000 jz!67) (bvslt jz!67 #b00000000000000000000000000010100) (= (size!182 qq!69) #b00000000000000000000000000010100)))))

(assert (=> start!1139 e!2735))

(assert (=> start!1139 true))

(declare-fun array_inv!132 (array!415) Bool)

(assert (=> start!1139 (array_inv!132 qq!69)))

(declare-fun b!5307 () Bool)

(declare-fun res!4181 () Bool)

(assert (=> b!5307 (=> (not res!4181) (not e!2735))))

(declare-fun qqInv!0 (array!415) Bool)

(assert (=> b!5307 (= res!4181 (qqInv!0 qq!69))))

(declare-fun b!5308 () Bool)

(assert (=> b!5308 (= e!2735 false)))

(assert (= (and start!1139 res!4180) b!5307))

(assert (= (and b!5307 res!4181) b!5308))

(declare-fun m!8215 () Bool)

(assert (=> start!1139 m!8215))

(declare-fun m!8217 () Bool)

(assert (=> b!5307 m!8217))

(declare-fun m!8219 () Bool)

(assert (=> b!5308 m!8219))

(declare-fun m!8221 () Bool)

(assert (=> b!5308 m!8221))

(declare-fun m!8223 () Bool)

(assert (=> b!5308 m!8223))

(declare-fun m!8225 () Bool)

(assert (=> b!5308 m!8225))

(declare-fun m!8227 () Bool)

(assert (=> b!5308 m!8227))

(declare-fun m!8229 () Bool)

(assert (=> b!5308 m!8229))

(declare-fun m!8231 () Bool)

(assert (=> b!5308 m!8231))

(declare-fun m!8233 () Bool)

(assert (=> b!5308 m!8233))

(declare-fun m!8235 () Bool)

(assert (=> b!5308 m!8235))

(check-sat (not b!5307) (not start!1139))
(check-sat)
